N = 8;
H = 5;
T = 2;

avail = array3d(1..N, 1..H, 1..T, [6, 2, 8, 10, 0, 7, 1, 4, 10, 0, 5, 5, 5, 1, 6, 0, 4, 8, 7, 3, 3, 1, 5, 1, 7, 7, 2, 2, 6, 8, 2, 6, 1, 9, 7, 5, 4, 8, 4, 10, 3, 10, 7, 5, 9, 2, 8, 4, 8, 4, 2, 4, 7, 8, 3, 8, 6, 0, 3, 1, 1, 8, 7, 9, 9, 0, 5, 5, 3, 1, 5, 8, 8, 9, 2, 10, 1, 10, 3, 8]);

r = array2d(1..H, 1..T, [4, 2, 0, 1, 1, 2, 2, 2, 0, 1]);
